c1_10_2

VEHICLE
NUMBER   CAPACITY
250     200

CUSTOMER
CUST NO. XCOORD.  YCOORD.  DEMAND  READY TIME DUE DATE  SERVICE TIME

0   250    250     0     0    1824     0
835 489 17 10 764 826 90
361 491 25 10 0 1405 90
858 491 20 20 0 1401 90
447 483 27 20 1322 1384 90
432 483 22 10 476 543 90
288 483 14 10 0 1403 90
994 485 27 10 1231 1291 90
608 488 26 30 0 1408 90
727 481 20 20 572 631 90
853 485 24 20 0 1408 90
839 489 27 10 0 1408 90
384 481 26 30 0 1413 90
